N = 4;

ACTORES = { Actor1 , Actor2 , Actor3 , Actor4 };

M = 4;

Escenas =
[| 1 , 0 , 1 , 1 , 10
| 1 , 0 , 1 , 0 , 20
| 0 , 1 , 1 , 1 , 5
| 1 , 0 , 0 , 1 , 8|];

Duracion =
[ 2 , 3 , 1 , 2 ];

Disponibilidad =
[|Actor1, 0
|Actor2, 0
|Actor3, 0
|Actor4, 4|];

E = 2;

Evitar =
[|Actor1, Actor2
|Actor2, Actor3|];